certificates/rado_a7_c15_N12.cnf
c Rad2 upper bound instance: x1 + 7*x2 - x3 = 15, interval [1,12]
p cnf 12 42
1 3 7 0
-1 -3 -7 0
1 2 0
-1 -2 0
2 3 8 0
-2 -3 -8 0
2 3 0
-2 -3 0
3 9 0
-3 -9 0
2 3 4 0
-2 -3 -4 0
3 4 10 0
-3 -4 -10 0
2 4 5 0
-2 -4 -5 0
3 5 11 0
-3 -5 -11 0
2 5 6 0
-2 -5 -6 0
3 6 12 0
-3 -6 -12 0
2 6 7 0
-2 -6 -7 0
2 7 8 0
-2 -7 -8 0
1 9 0
-1 -9 0
2 8 9 0
-2 -8 -9 0
1 2 10 0
-1 -2 -10 0
2 9 10 0
-2 -9 -10 0
1 3 11 0
-1 -3 -11 0
2 10 11 0
-2 -10 -11 0
1 4 12 0
-1 -4 -12 0
2 11 12 0
-2 -11 -12 0
