certificates/rado_a7_c15_N12.drat
-11 -12 0
d -11 -2 -12 0
-3 -12 0
-12 0
3 0
-2 0
-9 0
1 0
11 0
10 0
8 0
0
